c preprocessed version of BN_90, 39 vertices, 408 edges
p td 39 408
0 1
11 0
16 0
17 0
18 0
23 0
20 0
25 0
27 0
2 1
14 1
11 1
16 1
17 1
23 1
27 1
3 2
14 2
17 2
6 2
4 3
3 5
6 3
21 3
23 3
4 5
8 4
6 4
21 4
18 4
6 5
21 5
18 5
6 7
6 10
6 11
6 12
6 16
6 18
6 19
6 21
6 20
6 22
6 23
24 6
27 6
26 6
7 8
7 9
7 10
19 7
21 7
18 7
22 7
23 7
20 7
24 7
27 7
8 9
8 14
8 12
13 8
15 8
17 8
10 8
21 8
18 8
22 8
23 8
20 8
24 8
27 8
26 8
10 9
18 9
20 9
10 11
10 13
10 12
10 15
19 10
21 10
18 10
22 10
23 10
20 10
24 10
27 10
12 11
16 11
23 11
25 11
27 11
13 12
15 12
21 12
22 12
23 12
24 12
27 12
13 14
16 13
13 17
13 15
19 13
21 13
18 13
22 13
23 13
24 13
27 13
15 14
17 14
16 15
15 17
19 15
21 15
18 15
22 15
23 15
24 15
27 15
17 16
21 16
22 16
23 16
24 16
27 16
18 17
22 17
23 17
24 17
27 17
19 18
18 20
21 18
18 22
18 23
24 18
27 18
19 20
19 21
19 22
19 23
24 19
27 19
21 20
22 20
23 20
24 20
27 20
26 20
21 22
21 23
24 21
27 21
22 23
24 22
27 22
24 23
27 23
26 23
25 24
24 27
24 26
25 26
25 27
27 26
28 6
28 33
28 38
28 34
28 11
28 12
28 13
28 15
28 16
28 17
28 37
28 20
28 18
28 19
28 21
28 35
28 22
28 23
28 29
28 30
28 24
28 31
28 32
28 27
28 36
28 26
29 8
29 33
29 32
29 9
29 25
29 7
29 10
29 34
29 26
29 38
29 6
29 30
29 24
29 31
29 18
29 35
29 27
29 36
29 37
29 23
29 20
30 38
30 25
30 6
30 19
30 21
30 20
30 0
30 1
30 37
30 33
30 9
30 8
30 18
30 36
30 13
30 15
30 7
30 10
30 22
30 32
30 24
30 31
30 34
30 35
30 27
30 23
30 26
31 38
31 25
31 24
31 6
31 19
31 21
31 20
31 0
31 1
31 37
31 34
31 33
31 8
31 11
31 12
31 26
31 18
31 16
31 13
31 15
31 36
31 17
31 10
31 35
31 22
31 27
31 23
31 32
32 38
32 25
32 24
32 1
32 2
32 8
32 33
32 9
32 14
32 17
32 7
32 10
32 34
32 6
32 19
32 21
32 18
32 35
32 22
32 27
32 36
32 37
32 23
32 20
32 26
33 38
33 0
33 7
33 8
33 9
33 11
33 17
33 10
33 34
33 18
33 35
33 37
33 23
33 20
33 27
33 36
34 38
34 6
34 7
34 8
34 9
34 10
34 19
34 21
34 18
34 35
34 22
34 37
34 23
34 20
34 24
34 27
34 36
34 26
35 38
35 1
35 2
35 6
35 7
35 8
35 10
35 11
35 12
35 13
35 14
35 15
35 17
35 37
35 19
35 20
35 21
35 18
35 22
35 23
35 24
35 27
35 36
35 26
36 38
36 25
36 24
36 27
36 26
36 6
36 19
36 21
36 18
36 22
36 20
36 0
36 1
36 2
36 37
36 8
36 14
36 11
36 5
36 16
36 13
36 15
36 17
36 23
37 38
37 4
37 6
37 7
37 8
37 9
37 10
37 19
37 21
37 18
37 22
37 20
37 23
37 24
37 27
37 26
38 6
38 7
38 8
38 9
38 10
38 11
38 12
38 17
38 19
38 18
38 23
38 20
38 24
38 27
38 26
